MARKOV
6
2 2 2 2 2 2
12
2 0 1
2 0 2
2 0 3
2 0 4
2 1 2
2 1 3
2 1 4
2 1 5
2 2 4
2 2 5
2 3 4
2 4 5

4
 0.9501 0.6068
 0.2311 0.4860

4
 0.8913 0.4565
 0.7621 0.0185

4
 0.8214 0.6154
 0.4447 0.7919

4
 0.9218 0.1763
 0.7382 0.4057

4
 0.9355 0.4103
 0.9169 0.8936

4
 0.0579 0.8132
 0.3529 0.0099

4
 0.1389 0.1987
 0.2028 0.6038

4
 0.2722 0.0153
 0.1988 0.7468

4
 0.4451 0.4660
 0.9318 0.4186

4
 0.8462 0.2026
 0.5252 0.6721

4
 0.8381 0.6813
 0.0196 0.3795

4
 0.8318 0.7095
 0.5028 0.4289

